NAME PortOpt_n20_m8_inst_1
ROWS
 N  OBJ
 E  budget  
 L  return  
 L  uncertain_risk
 L  fixed_risk
COLUMNS
    asset[0]  budget    1
    asset[0]  return    -2.0133477628285474e+00
    asset[1]  budget    1
    asset[1]  return    -3.8882979631050145e+00
    asset[2]  budget    1
    asset[2]  return    -4.3983599164819358e+00
    asset[3]  budget    1
    asset[3]  return    -3.9884190591652899e+00
    asset[4]  budget    1
    asset[4]  return    -2.5218690590561135e+00
    asset[5]  budget    1
    asset[5]  return    -4.5919705063461498e+00
    asset[6]  budget    1
    asset[6]  return    -3.6040497448922908e+00
    asset[7]  budget    1
    asset[7]  return    -1.9090858364791599e+00
    asset[8]  budget    1
    asset[8]  return    -4.1442518624770459e+00
    asset[9]  budget    1
    asset[9]  return    -1.5764111667812399e+00
    asset[10]  budget    1
    asset[10]  return    -2.2372503847205549e+00
    asset[11]  budget    1
    asset[11]  return    -1.1726129261078380e+00
    asset[12]  budget    1
    asset[12]  return    -2.4183383613564713e+00
    asset[13]  budget    1
    asset[13]  return    -1.6374145583608499e+00
    asset[14]  budget    1
    asset[14]  return    -2.6580289148950618e+00
    asset[15]  budget    1
    asset[15]  return    -2.9788303882161618e+00
    asset[16]  budget    1
    asset[16]  return    -5.0042483263116413e+00
    asset[17]  budget    1
    asset[17]  return    -4.2705990020162483e+00
    asset[18]  budget    1
    asset[18]  return    -3.1629414320498412e+00
    asset[19]  budget    1
    asset[19]  return    -2.3331840956977294e+00
    return_var  OBJ       -1
    return_var  return    1
    uncertain_risk_var  OBJ       1
    uncertain_risk_var  uncertain_risk  -1
    fixed_risk_var  OBJ       1
    fixed_risk_var  fixed_risk  -1
RHS
    RHS1      budget    1
BOUNDS
 FR BND1      asset[0]
 FR BND1      asset[1]
 FR BND1      asset[2]
 FR BND1      asset[3]
 FR BND1      asset[4]
 FR BND1      asset[5]
 FR BND1      asset[6]
 FR BND1      asset[7]
 FR BND1      asset[8]
 FR BND1      asset[9]
 FR BND1      asset[10]
 FR BND1      asset[11]
 FR BND1      asset[12]
 FR BND1      asset[13]
 FR BND1      asset[14]
 FR BND1      asset[15]
 FR BND1      asset[16]
 FR BND1      asset[17]
 FR BND1      asset[18]
 FR BND1      asset[19]
 FR BND1      return_var
 FR BND1      uncertain_risk_var
 FR BND1      fixed_risk_var
QCMATRIX   uncertain_risk
    asset[0]  asset[0]  4.1619360401859901e-02
    asset[0]  asset[1]  2.1337355829517943e-02
    asset[1]  asset[0]  2.1337355829517943e-02
    asset[0]  asset[2]  3.3572615251871102e-03
    asset[2]  asset[0]  3.3572615251871102e-03
    asset[0]  asset[3]  2.6779985286132426e-02
    asset[3]  asset[0]  2.6779985286132426e-02
    asset[0]  asset[4]  -1.4530706242017223e-02
    asset[4]  asset[0]  -1.4530706242017223e-02
    asset[0]  asset[5]  -2.9956850050047973e-02
    asset[5]  asset[0]  -2.9956850050047973e-02
    asset[0]  asset[6]  -2.4687035812481255e-02
    asset[6]  asset[0]  -2.4687035812481255e-02
    asset[0]  asset[7]  -4.8326564460336750e-02
    asset[7]  asset[0]  -4.8326564460336750e-02
    asset[0]  asset[8]  4.3385119521990433e-03
    asset[8]  asset[0]  4.3385119521990433e-03
    asset[0]  asset[9]  1.8272914631217697e-02
    asset[9]  asset[0]  1.8272914631217697e-02
    asset[0]  asset[10]  8.8949577545180281e-03
    asset[10]  asset[0]  8.8949577545180281e-03
    asset[0]  asset[11]  -6.8676780556203654e-03
    asset[11]  asset[0]  -6.8676780556203654e-03
    asset[0]  asset[12]  -2.6878651713588705e-02
    asset[12]  asset[0]  -2.6878651713588705e-02
    asset[0]  asset[13]  -7.8047822609213016e-02
    asset[13]  asset[0]  -7.8047822609213016e-02
    asset[0]  asset[14]  1.3041963229038606e-03
    asset[14]  asset[0]  1.3041963229038606e-03
    asset[0]  asset[15]  -6.6443897386767705e-03
    asset[15]  asset[0]  -6.6443897386767705e-03
    asset[0]  asset[16]  8.5738556390910735e-03
    asset[16]  asset[0]  8.5738556390910735e-03
    asset[0]  asset[17]  -1.4909449924859926e-02
    asset[17]  asset[0]  -1.4909449924859926e-02
    asset[0]  asset[18]  2.9034213153368016e-02
    asset[18]  asset[0]  2.9034213153368016e-02
    asset[0]  asset[19]  1.0974173868455842e-02
    asset[19]  asset[0]  1.0974173868455842e-02
    asset[1]  asset[1]  1.0734338192719574e-01
    asset[1]  asset[2]  -1.5712670384292193e-02
    asset[2]  asset[1]  -1.5712670384292193e-02
    asset[1]  asset[3]  5.5307489370804014e-02
    asset[3]  asset[1]  5.5307489370804014e-02
    asset[1]  asset[4]  6.2906204534293160e-03
    asset[4]  asset[1]  6.2906204534293160e-03
    asset[1]  asset[5]  3.2142297650291210e-02
    asset[5]  asset[1]  3.2142297650291210e-02
    asset[1]  asset[6]  -2.4233171000033419e-03
    asset[6]  asset[1]  -2.4233171000033419e-03
    asset[1]  asset[7]  -3.7108877976839719e-02
    asset[7]  asset[1]  -3.7108877976839719e-02
    asset[1]  asset[8]  -3.5142956343700620e-02
    asset[8]  asset[1]  -3.5142956343700620e-02
    asset[1]  asset[9]  4.7719608721447510e-02
    asset[9]  asset[1]  4.7719608721447510e-02
    asset[1]  asset[10]  5.4419040618966831e-03
    asset[10]  asset[1]  5.4419040618966831e-03
    asset[1]  asset[11]  9.7688518712209238e-03
    asset[11]  asset[1]  9.7688518712209238e-03
    asset[1]  asset[12]  -4.6347088066256092e-02
    asset[12]  asset[1]  -4.6347088066256092e-02
    asset[1]  asset[13]  -3.5125077930706183e-02
    asset[13]  asset[1]  -3.5125077930706183e-02
    asset[1]  asset[14]  -3.2509415365534325e-02
    asset[14]  asset[1]  -3.2509415365534325e-02
    asset[1]  asset[15]  3.3028402901491886e-02
    asset[15]  asset[1]  3.3028402901491886e-02
    asset[1]  asset[16]  1.1612783090236717e-02
    asset[16]  asset[1]  1.1612783090236717e-02
    asset[1]  asset[17]  3.9633209716512491e-02
    asset[17]  asset[1]  3.9633209716512491e-02
    asset[1]  asset[18]  -2.6993382995307638e-02
    asset[18]  asset[1]  -2.6993382995307638e-02
    asset[1]  asset[19]  2.1829977004080039e-02
    asset[19]  asset[1]  2.1829977004080039e-02
    asset[2]  asset[2]  1.8632780880973067e-02
    asset[2]  asset[3]  -1.9486017990711087e-02
    asset[3]  asset[2]  -1.9486017990711087e-02
    asset[2]  asset[4]  -8.4372358129535842e-03
    asset[4]  asset[2]  -8.4372358129535842e-03
    asset[2]  asset[5]  -1.4251611094596956e-02
    asset[5]  asset[2]  -1.4251611094596956e-02
    asset[2]  asset[6]  -1.4042327176443626e-02
    asset[6]  asset[2]  -1.4042327176443626e-02
    asset[2]  asset[7]  -7.3599873308194061e-04
    asset[7]  asset[2]  -7.3599873308194061e-04
    asset[2]  asset[8]  2.4220634091053118e-02
    asset[8]  asset[2]  2.4220634091053118e-02
    asset[2]  asset[9]  -1.3691771127456353e-02
    asset[9]  asset[2]  -1.3691771127456353e-02
    asset[2]  asset[10]  -1.8755741420244113e-02
    asset[10]  asset[2]  -1.8755741420244113e-02
    asset[2]  asset[11]  5.5048974842872838e-03
    asset[11]  asset[2]  5.5048974842872838e-03
    asset[2]  asset[12]  2.4407070663768286e-02
    asset[12]  asset[2]  2.4407070663768286e-02
    asset[2]  asset[13]  -6.7023182306096395e-03
    asset[13]  asset[2]  -6.7023182306096395e-03
    asset[2]  asset[14]  -8.9769720887619125e-03
    asset[14]  asset[2]  -8.9769720887619125e-03
    asset[2]  asset[15]  -4.7418511361445289e-03
    asset[15]  asset[2]  -4.7418511361445289e-03
    asset[2]  asset[16]  -1.9510868245368178e-02
    asset[16]  asset[2]  -1.9510868245368178e-02
    asset[2]  asset[17]  -2.7217774472324881e-02
    asset[17]  asset[2]  -2.7217774472324881e-02
    asset[2]  asset[18]  1.0491610961826124e-02
    asset[18]  asset[2]  1.0491610961826124e-02
    asset[2]  asset[19]  -1.8694596367485931e-02
    asset[19]  asset[2]  -1.8694596367485931e-02
    asset[3]  asset[3]  7.0345935990142300e-02
    asset[3]  asset[4]  -2.5323238528033205e-03
    asset[4]  asset[3]  -2.5323238528033205e-03
    asset[3]  asset[5]  1.1199987412263652e-02
    asset[5]  asset[3]  1.1199987412263652e-02
    asset[3]  asset[6]  4.4273650196591996e-03
    asset[6]  asset[3]  4.4273650196591996e-03
    asset[3]  asset[7]  -5.0115302952302057e-02
    asset[7]  asset[3]  -5.0115302952302057e-02
    asset[3]  asset[8]  -5.3228101628515608e-02
    asset[8]  asset[3]  -5.3228101628515608e-02
    asset[3]  asset[9]  4.1003584710115414e-02
    asset[9]  asset[3]  4.1003584710115414e-02
    asset[3]  asset[10]  5.3102093754214513e-02
    asset[10]  asset[3]  5.3102093754214513e-02
    asset[3]  asset[11]  -1.1103581026028033e-02
    asset[11]  asset[3]  -1.1103581026028033e-02
    asset[3]  asset[12]  -7.2790641663005945e-02
    asset[12]  asset[3]  -7.2790641663005945e-02
    asset[3]  asset[13]  -3.4582355760041317e-02
    asset[13]  asset[3]  -3.4582355760041317e-02
    asset[3]  asset[14]  2.1500969270206198e-03
    asset[14]  asset[3]  2.1500969270206198e-03
    asset[3]  asset[15]  2.3151369571018522e-02
    asset[15]  asset[3]  2.3151369571018522e-02
    asset[3]  asset[16]  3.8562499791663693e-02
    asset[16]  asset[3]  3.8562499791663693e-02
    asset[3]  asset[17]  3.6451254498919554e-02
    asset[17]  asset[3]  3.6451254498919554e-02
    asset[3]  asset[18]  9.0885406477235683e-03
    asset[18]  asset[3]  9.0885406477235683e-03
    asset[3]  asset[19]  4.0320243559737672e-02
    asset[19]  asset[3]  4.0320243559737672e-02
    asset[4]  asset[4]  1.2690138106368645e-02
    asset[4]  asset[5]  1.8680274700621086e-02
    asset[5]  asset[4]  1.8680274700621086e-02
    asset[4]  asset[6]  1.4954585914074156e-02
    asset[6]  asset[4]  1.4954585914074156e-02
    asset[4]  asset[7]  1.5940165761752605e-02
    asset[7]  asset[4]  1.5940165761752605e-02
    asset[4]  asset[8]  -8.8621432948147207e-03
    asset[8]  asset[4]  -8.8621432948147207e-03
    asset[4]  asset[9]  1.7918558862429601e-03
    asset[9]  asset[4]  1.7918558862429601e-03
    asset[4]  asset[10]  2.5245635569202723e-04
    asset[10]  asset[4]  2.5245635569202723e-04
    asset[4]  asset[11]  2.7885507047896540e-03
    asset[11]  asset[4]  2.7885507047896540e-03
    asset[4]  asset[12]  2.7608482278715907e-03
    asset[12]  asset[4]  2.7608482278715907e-03
    asset[4]  asset[13]  2.7251667838831897e-02
    asset[13]  asset[4]  2.7251667838831897e-02
    asset[4]  asset[14]  -1.1356657056390731e-03
    asset[14]  asset[4]  -1.1356657056390731e-03
    asset[4]  asset[15]  6.5289102713090210e-03
    asset[15]  asset[4]  6.5289102713090210e-03
    asset[4]  asset[16]  2.0883568794997042e-04
    asset[16]  asset[4]  2.0883568794997042e-04
    asset[4]  asset[17]  1.3181787258987738e-02
    asset[17]  asset[4]  1.3181787258987738e-02
    asset[4]  asset[18]  -1.1779763424211401e-02
    asset[18]  asset[4]  -1.1779763424211401e-02
    asset[4]  asset[19]  2.1644504101068249e-03
    asset[19]  asset[4]  2.1644504101068249e-03
    asset[5]  asset[5]  6.1982594269204959e-02
    asset[5]  asset[6]  3.2492141238317770e-02
    asset[6]  asset[5]  3.2492141238317770e-02
    asset[5]  asset[7]  2.7833187250064697e-02
    asset[7]  asset[5]  2.7833187250064697e-02
    asset[5]  asset[8]  -3.7099239859777727e-02
    asset[8]  asset[5]  -3.7099239859777727e-02
    asset[5]  asset[9]  -4.6869831582552180e-04
    asset[9]  asset[5]  -4.6869831582552180e-04
    asset[5]  asset[10]  5.5119127643698494e-03
    asset[10]  asset[5]  5.5119127643698494e-03
    asset[5]  asset[11]  1.2392526594965233e-02
    asset[11]  asset[5]  1.2392526594965233e-02
    asset[5]  asset[12]  9.8479540108072864e-04
    asset[12]  asset[5]  9.8479540108072864e-04
    asset[5]  asset[13]  7.9222153579643961e-02
    asset[13]  asset[5]  7.9222153579643961e-02
    asset[5]  asset[14]  -1.9904754439067501e-02
    asset[14]  asset[5]  -1.9904754439067501e-02
    asset[5]  asset[15]  2.8389459749773457e-02
    asset[15]  asset[5]  2.8389459749773457e-02
    asset[5]  asset[16]  -2.9514221639238671e-03
    asset[16]  asset[5]  -2.9514221639238671e-03
    asset[5]  asset[17]  4.9705754135008856e-02
    asset[17]  asset[5]  4.9705754135008856e-02
    asset[5]  asset[18]  -4.4807515132436374e-02
    asset[18]  asset[5]  -4.4807515132436374e-02
    asset[5]  asset[19]  1.0474016577600515e-02
    asset[19]  asset[5]  1.0474016577600515e-02
    asset[6]  asset[6]  3.0666790484783001e-02
    asset[6]  asset[7]  2.5187301478993632e-02
    asset[7]  asset[6]  2.5187301478993632e-02
    asset[6]  asset[8]  -2.7518009460573228e-02
    asset[8]  asset[6]  -2.7518009460573228e-02
    asset[6]  asset[9]  -1.2151411679423049e-03
    asset[9]  asset[6]  -1.2151411679423049e-03
    asset[6]  asset[10]  1.5860745783752947e-02
    asset[10]  asset[6]  1.5860745783752947e-02
    asset[6]  asset[11]  3.6551749026131537e-04
    asset[11]  asset[6]  3.6551749026131537e-04
    asset[6]  asset[12]  -1.5990387680745858e-03
    asset[12]  asset[6]  -1.5990387680745858e-03
    asset[6]  asset[13]  5.7037404903561878e-02
    asset[13]  asset[6]  5.7037404903561878e-02
    asset[6]  asset[14]  5.5143719160385355e-03
    asset[14]  asset[6]  5.5143719160385355e-03
    asset[6]  asset[15]  1.3525614387041996e-02
    asset[15]  asset[6]  1.3525614387041996e-02
    asset[6]  asset[16]  1.1040341677681285e-02
    asset[16]  asset[6]  1.1040341677681285e-02
    asset[6]  asset[17]  3.1502110867505762e-02
    asset[17]  asset[6]  3.1502110867505762e-02
    asset[6]  asset[18]  -1.8412315301147307e-02
    asset[18]  asset[6]  -1.8412315301147307e-02
    asset[6]  asset[19]  1.3469412565082248e-02
    asset[19]  asset[6]  1.3469412565082248e-02
    asset[7]  asset[7]  6.7665572201873067e-02
    asset[7]  asset[8]  1.3825227177135021e-02
    asset[8]  asset[7]  1.3825227177135021e-02
    asset[7]  asset[9]  -3.1850061588832176e-02
    asset[9]  asset[7]  -3.1850061588832176e-02
    asset[7]  asset[10]  -3.0670281475546759e-02
    asset[10]  asset[7]  -3.0670281475546759e-02
    asset[7]  asset[11]  1.0675997792290587e-02
    asset[11]  asset[7]  1.0675997792290587e-02
    asset[7]  asset[12]  5.3190040308623655e-02
    asset[12]  asset[7]  5.3190040308623655e-02
    asset[7]  asset[13]  8.5653722703958601e-02
    asset[13]  asset[7]  8.5653722703958601e-02
    asset[7]  asset[14]  -1.9972587708560184e-04
    asset[14]  asset[7]  -1.9972587708560184e-04
    asset[7]  asset[15]  -4.3991439052578438e-03
    asset[15]  asset[7]  -4.3991439052578438e-03
    asset[7]  asset[16]  -1.9006327279359574e-02
    asset[16]  asset[7]  -1.9006327279359574e-02
    asset[7]  asset[17]  8.9488812537848236e-03
    asset[17]  asset[7]  8.9488812537848236e-03
    asset[7]  asset[18]  -3.6745551094511483e-02
    asset[18]  asset[7]  -3.6745551094511483e-02
    asset[7]  asset[19]  -1.9098209253710276e-02
    asset[19]  asset[7]  -1.9098209253710276e-02
    asset[8]  asset[8]  6.5030683087011876e-02
    asset[8]  asset[9]  -2.4303175014089240e-02
    asset[9]  asset[8]  -2.4303175014089240e-02
    asset[8]  asset[10]  -5.3913553516473006e-02
    asset[10]  asset[8]  -5.3913553516473006e-02
    asset[8]  asset[11]  7.5157739749131692e-03
    asset[11]  asset[8]  7.5157739749131692e-03
    asset[8]  asset[12]  5.2250505709479339e-02
    asset[12]  asset[8]  5.2250505709479339e-02
    asset[8]  asset[13]  -3.1461657352025323e-02
    asset[13]  asset[8]  -3.1461657352025323e-02
    asset[8]  asset[14]  -6.1965411176872626e-03
    asset[14]  asset[8]  -6.1965411176872626e-03
    asset[8]  asset[15]  -2.8811982406354276e-02
    asset[15]  asset[8]  -2.8811982406354276e-02
    asset[8]  asset[16]  -3.3931168797390152e-02
    asset[16]  asset[8]  -3.3931168797390152e-02
    asset[8]  asset[17]  -5.6043049441577758e-02
    asset[17]  asset[8]  -5.6043049441577758e-02
    asset[8]  asset[18]  1.8835214208134936e-02
    asset[18]  asset[8]  1.8835214208134936e-02
    asset[8]  asset[19]  -3.4842635311156736e-02
    asset[19]  asset[8]  -3.4842635311156736e-02
    asset[9]  asset[9]  3.7136104649870980e-02
    asset[9]  asset[10]  2.2950430896245891e-02
    asset[10]  asset[9]  2.2950430896245891e-02
    asset[9]  asset[11]  -6.0056293327257603e-03
    asset[11]  asset[9]  -6.0056293327257603e-03
    asset[9]  asset[12]  -4.6621345834526151e-02
    asset[12]  asset[9]  -4.6621345834526151e-02
    asset[9]  asset[13]  -4.0856280383369532e-02
    asset[13]  asset[9]  -4.0856280383369532e-02
    asset[9]  asset[14]  4.1724843309799968e-04
    asset[14]  asset[9]  4.1724843309799968e-04
    asset[9]  asset[15]  1.3747050663503992e-02
    asset[15]  asset[9]  1.3747050663503992e-02
    asset[9]  asset[16]  2.6120359444732996e-02
    asset[16]  asset[9]  2.6120359444732996e-02
    asset[9]  asset[17]  1.5608840007471588e-02
    asset[17]  asset[9]  1.5608840007471588e-02
    asset[9]  asset[18]  7.2280961246430084e-03
    asset[18]  asset[9]  7.2280961246430084e-03
    asset[9]  asset[19]  2.2026231371365321e-02
    asset[19]  asset[9]  2.2026231371365321e-02
    asset[10]  asset[10]  6.7674587821427309e-02
    asset[10]  asset[11]  -1.8907195417387765e-02
    asset[11]  asset[10]  -1.8907195417387765e-02
    asset[10]  asset[12]  -6.2824503608019805e-02
    asset[12]  asset[10]  -6.2824503608019805e-02
    asset[10]  asset[13]  -1.5286706951247694e-05
    asset[13]  asset[10]  -1.5286706951247694e-05
    asset[10]  asset[14]  2.2952179839033533e-02
    asset[14]  asset[10]  2.2952179839033533e-02
    asset[10]  asset[15]  1.4943822945601776e-02
    asset[15]  asset[10]  1.4943822945601776e-02
    asset[10]  asset[16]  4.1228629312199283e-02
    asset[16]  asset[10]  4.1228629312199283e-02
    asset[10]  asset[17]  2.9644914116878827e-02
    asset[17]  asset[10]  2.9644914116878827e-02
    asset[10]  asset[18]  1.7740822366742220e-02
    asset[18]  asset[10]  1.7740822366742220e-02
    asset[10]  asset[19]  3.4796284560250516e-02
    asset[19]  asset[10]  3.4796284560250516e-02
    asset[11]  asset[11]  9.8854625836484206e-03
    asset[11]  asset[12]  1.8901625925202212e-02
    asset[12]  asset[11]  1.8901625925202212e-02
    asset[11]  asset[13]  1.5609176807755382e-02
    asset[13]  asset[11]  1.5609176807755382e-02
    asset[11]  asset[14]  -1.5380982777270694e-02
    asset[14]  asset[11]  -1.5380982777270694e-02
    asset[11]  asset[15]  5.1776782168645123e-03
    asset[15]  asset[11]  5.1776782168645123e-03
    asset[11]  asset[16]  -1.5537703110609188e-02
    asset[16]  asset[11]  -1.5537703110609188e-02
    asset[11]  asset[17]  -4.9198312043897732e-05
    asset[17]  asset[11]  -4.9198312043897732e-05
    asset[11]  asset[18]  -1.3453184622774034e-02
    asset[18]  asset[11]  -1.3453184622774034e-02
    asset[11]  asset[19]  -9.5626527671828707e-03
    asset[19]  asset[11]  -9.5626527671828707e-03
    asset[12]  asset[12]  8.8192992154778715e-02
    asset[12]  asset[13]  4.6859010847880592e-02
    asset[13]  asset[12]  4.6859010847880592e-02
    asset[12]  asset[14]  -1.3477469922191655e-02
    asset[14]  asset[12]  -1.3477469922191655e-02
    asset[12]  asset[15]  -1.6020830015367513e-02
    asset[15]  asset[12]  -1.6020830015367513e-02
    asset[12]  asset[16]  -4.9172939881593006e-02
    asset[16]  asset[12]  -4.9172939881593006e-02
    asset[12]  asset[17]  -3.0417725967781258e-02
    asset[17]  asset[12]  -3.0417725967781258e-02
    asset[12]  asset[18]  -2.0705727785029299e-02
    asset[18]  asset[12]  -2.0705727785029299e-02
    asset[12]  asset[19]  -4.2402594905408861e-02
    asset[19]  asset[12]  -4.2402594905408861e-02
    asset[13]  asset[13]  1.7528168716812323e-01
    asset[13]  asset[14]  -9.7474490544332097e-03
    asset[14]  asset[13]  -9.7474490544332097e-03
    asset[13]  asset[15]  2.5589410912564385e-02
    asset[15]  asset[13]  2.5589410912564385e-02
    asset[13]  asset[16]  -1.8343510315730612e-02
    asset[16]  asset[13]  -1.8343510315730612e-02
    asset[13]  asset[17]  4.7997973408588974e-02
    asset[17]  asset[13]  4.7997973408588974e-02
    asset[13]  asset[18]  -6.1662939336378370e-02
    asset[18]  asset[13]  -6.1662939336378370e-02
    asset[13]  asset[19]  -1.0701535628568576e-02
    asset[19]  asset[13]  -1.0701535628568576e-02
    asset[14]  asset[14]  3.1459950589925290e-02
    asset[14]  asset[15]  -1.3612261173179031e-02
    asset[15]  asset[14]  -1.3612261173179031e-02
    asset[14]  asset[16]  2.1998769064154704e-02
    asset[16]  asset[14]  2.1998769064154704e-02
    asset[14]  asset[17]  -1.2623175241160045e-04
    asset[17]  asset[14]  -1.2623175241160045e-04
    asset[14]  asset[18]  1.4018218552810291e-02
    asset[18]  asset[14]  1.4018218552810291e-02
    asset[14]  asset[19]  1.0355880583589079e-02
    asset[19]  asset[14]  1.0355880583589079e-02
    asset[15]  asset[15]  2.6031106143602316e-02
    asset[15]  asset[16]  6.0222470627260653e-03
    asset[16]  asset[15]  6.0222470627260653e-03
    asset[15]  asset[17]  2.4155825399990671e-02
    asset[17]  asset[15]  2.4155825399990671e-02
    asset[15]  asset[18]  -1.3466228296034251e-02
    asset[18]  asset[15]  -1.3466228296034251e-02
    asset[15]  asset[19]  9.8825944936773488e-03
    asset[19]  asset[15]  9.8825944936773488e-03
    asset[16]  asset[16]  4.0956591399618471e-02
    asset[16]  asset[17]  2.4218540502548930e-02
    asset[17]  asset[16]  2.4218540502548930e-02
    asset[16]  asset[18]  1.0403991042102538e-02
    asset[18]  asset[16]  1.0403991042102538e-02
    asset[16]  asset[19]  3.1833402097306437e-02
    asset[19]  asset[16]  3.1833402097306437e-02
    asset[17]  asset[17]  6.6554541862321695e-02
    asset[17]  asset[18]  -4.5603271866761025e-02
    asset[18]  asset[17]  -4.5603271866761025e-02
    asset[17]  asset[19]  2.9605738969145524e-02
    asset[19]  asset[17]  2.9605738969145524e-02
    asset[18]  asset[18]  7.2095422903685188e-02
    asset[18]  asset[19]  7.4914667690527351e-03
    asset[19]  asset[18]  7.4914667690527351e-03
    asset[19]  asset[19]  3.4824704162659315e-02
QCMATRIX   fixed_risk
    asset[0]  asset[0]  3.9832144525137440e-03
    asset[1]  asset[1]  1.0107992283711257e-02
    asset[2]  asset[2]  1.7843618952564462e-03
    asset[3]  asset[3]  6.6462268363436834e-03
    asset[4]  asset[4]  1.3163002326628626e-03
    asset[5]  asset[5]  6.0479040038987440e-03
    asset[6]  asset[6]  3.2560623712347726e-03
    asset[7]  asset[7]  6.4616930624729792e-03
    asset[8]  asset[8]  6.8829271123390353e-03
    asset[9]  asset[9]  3.4452447525190341e-03
    asset[10]  asset[10]  6.5315411613694058e-03
    asset[11]  asset[11]  1.0653239240070772e-03
    asset[12]  asset[12]  9.0349157577738655e-03
    asset[13]  asset[13]  1.6836859895659341e-02
    asset[14]  asset[14]  3.2782005198171422e-03
    asset[15]  asset[15]  2.5875145293775183e-03
    asset[16]  asset[16]  4.2789376643637810e-03
    asset[17]  asset[17]  6.2321031856187800e-03
    asset[18]  asset[18]  6.6386933093885566e-03
    asset[19]  asset[19]  3.4318079734522930e-03
ENDATA
